	Costo	Iter.	Tiempo
1	532,49	400	17,781
2	869,87	157	12,593
3	853,69	145	28,078
4	1086,78	233	112,049
5	1407,75	142	130,766
6	560,96	259	10,968
7	941,96	106	51,359
8	879,42	192	81,532
9	1225,96	124	962,421
10	1512,28	104	2692,994
11	1241,54	203	63,912
12	858,47	133	23,22
13	1641,14	146	53,799
14	901,55	107	20,392
